DIMENSION: 10
EDGE_WEIGHT_TYPE: EXPLICIT
EDGE_WEIGHT_FORMAT: FULL_MATRIX
EDGE_WEIGHT_SECTION:
32767 34 33 89 37 34 88 12 32767 32767 
34 32767 19 28 79 73 34 32767 20 32767 
33 19 32767 72 45 42 25 22 32767 10 
89 28 72 32767 43 32 51 6 100 84 
37 79 45 43 32767 32767 32767 32767 22 32767 
34 73 42 32 32767 32767 45 78 32767 63 
88 34 25 51 32767 45 32767 19 32767 98 
12 32767 22 6 32767 78 19 32767 32767 32767 
32767 20 32767 100 22 32767 32767 32767 32767 26 
32767 32767 10 84 32767 63 98 32767 26 32767 
EOF